
Gurobi 8.0.1 (linux64, C++) logging started Fri Jan 10 22:33:36 2020


Gurobi 8.0.1 (linux64, C++) logging started Fri Jan 10 22:33:47 2020


Gurobi 8.0.1 (linux64, C++) logging started Tue Jan 14 17:53:08 2020

Academic license - for non-commercial use only

Gurobi 8.0.1 (linux64, C++) logging started Tue Jan 14 18:03:47 2020

Academic license - for non-commercial use only

Gurobi 8.0.1 (linux64, C++) logging started Tue Jan 14 18:05:05 2020

Academic license - for non-commercial use only

Gurobi 8.0.1 (linux64, C++) logging started Fri May  1 17:29:42 2020

Academic license - for non-commercial use only

Gurobi 8.0.1 (linux64, C++) logging started Fri May  1 17:31:40 2020

Academic license - for non-commercial use only

Gurobi 8.0.1 (linux64, C++) logging started Sun Oct  4 19:08:46 2020

Academic license - for non-commercial use only
Optimize a model with 14 rows, 7 columns and 24 nonzeros
Coefficient statistics:
  Matrix range     [1e+00, 3e+01]
  Objective range  [1e+03, 1e+03]
  Bounds range     [1e+00, 6e+00]
  RHS range        [1e+00, 1e+03]
Presolve removed 11 rows and 1 columns
Presolve time: 0.05s
Presolved: 3 rows, 6 columns, 10 nonzeros

Iteration    Objective       Primal Inf.    Dual Inf.      Time
       0    0.0000000e+00   2.453992e-01   0.000000e+00      0s
       2    4.0000000e+03   0.000000e+00   0.000000e+00      0s

Solved in 2 iterations and 0.09 seconds
Optimal objective  4.000000000e+03

Gurobi 8.0.1 (linux64, C++) logging started Sun Oct  4 19:12:36 2020

Academic license - for non-commercial use only
Optimize a model with 17 rows, 8 columns and 30 nonzeros
Coefficient statistics:
  Matrix range     [1e+00, 3e+01]
  Objective range  [1e+03, 3e+03]
  Bounds range     [1e+00, 6e+00]
  RHS range        [2e+00, 1e+03]
Presolve removed 14 rows and 2 columns
Presolve time: 0.00s
Presolved: 3 rows, 6 columns, 12 nonzeros

Iteration    Objective       Primal Inf.    Dual Inf.      Time
       0    0.0000000e+00   9.375000e-02   0.000000e+00      0s
       2    1.5000000e+03   0.000000e+00   0.000000e+00      0s

Solved in 2 iterations and 0.00 seconds
Optimal objective  1.500000000e+03

Gurobi 8.0.1 (linux64, C++) logging started Mon Oct  5 21:22:27 2020

Academic license - for non-commercial use only
Optimize a model with 17 rows, 8 columns and 30 nonzeros
Coefficient statistics:
  Matrix range     [1e+00, 3e+01]
  Objective range  [1e+03, 3e+03]
  Bounds range     [1e+00, 6e+00]
  RHS range        [2e+00, 1e+03]
Presolve removed 14 rows and 2 columns
Presolve time: 0.05s
Presolved: 3 rows, 6 columns, 12 nonzeros

Iteration    Objective       Primal Inf.    Dual Inf.      Time
       0    0.0000000e+00   9.375000e-02   0.000000e+00      0s
       2    1.5000000e+03   0.000000e+00   0.000000e+00      0s

Solved in 2 iterations and 0.10 seconds
Optimal objective  1.500000000e+03

Gurobi 8.0.1 (linux64, C++) logging started Tue Oct  6 00:55:24 2020

Academic license - for non-commercial use only
Optimize a model with 57 rows, 17 columns and 134 nonzeros
Model has 2 quadratic objective terms
Coefficient statistics:
  Matrix range     [1e+00, 4e+01]
  Objective range  [2e+03, 2e+03]
  QObjective range [9e+02, 5e+03]
  Bounds range     [1e+00, 6e+00]
  RHS range        [4e-02, 1e+03]
Presolve removed 45 rows and 3 columns
Presolve time: 0.12s
Presolved: 12 rows, 14 columns, 48 nonzeros
Presolved model has 2 quadratic objective terms
Ordering time: 0.00s

Barrier statistics:
 AA' NZ     : 3.800e+01
 Factor NZ  : 7.800e+01
 Factor Ops : 6.500e+02 (less than 1 second per iteration)
 Threads    : 1

                  Objective                Residual
Iter       Primal          Dual         Primal    Dual     Compl     Time
   0   7.37223928e+05 -1.02932277e+06  9.97e+02 8.40e+02  1.01e+06     0s
   1   8.01571742e+03 -3.42437147e+05  8.48e-04 8.40e-04  1.25e+04     0s
   2   7.98389305e+03  5.20689826e+03  4.22e-06 4.18e-06  9.92e+01     0s
   3   7.65183492e+03  7.41323125e+03  1.91e-09 1.89e-09  8.52e+00     0s
   4   7.64259863e+03  7.63937261e+03  8.64e-13 9.72e-12  1.15e-01     0s
   5   7.64259373e+03  7.64259052e+03  7.17e-12 1.99e-11  1.15e-04     0s
   6   7.64259373e+03  7.64259373e+03  5.99e-12 1.03e-11  1.15e-07     0s
   7   7.64259373e+03  7.64259373e+03  9.35e-12 1.38e-11  1.35e-10     0s

Barrier solved model in 7 iterations and 0.18 seconds
Optimal objective 7.64259373e+03


Gurobi 8.0.1 (linux64, C++) logging started Tue Oct  6 09:59:05 2020

Academic license - for non-commercial use only

Gurobi 8.0.1 (linux64, C++) logging started Tue Oct  6 10:04:49 2020

Academic license - for non-commercial use only
Optimize a model with 57 rows, 17 columns and 134 nonzeros
Coefficient statistics:
  Matrix range     [1e+00, 4e+01]
  Objective range  [2e+03, 2e+03]
  Bounds range     [1e+00, 6e+00]
  RHS range        [4e-02, 1e+03]
Presolve removed 47 rows and 5 columns
Presolve time: 0.06s
Presolved: 10 rows, 12 columns, 40 nonzeros

Iteration    Objective       Primal Inf.    Dual Inf.      Time
       0    0.0000000e+00   3.297347e-01   0.000000e+00      0s
       9    5.1800000e+03   0.000000e+00   0.000000e+00      0s

Solved in 9 iterations and 0.10 seconds
Optimal objective  5.180000000e+03

Gurobi 8.0.1 (linux64, C++) logging started Tue Oct  6 10:06:02 2020

Academic license - for non-commercial use only

Gurobi 8.0.1 (linux64, C++) logging started Tue Oct  6 13:35:08 2020

Academic license - for non-commercial use only
Optimize a model with 57 rows, 17 columns and 134 nonzeros
Coefficient statistics:
  Matrix range     [1e+00, 4e+01]
  Objective range  [2e+03, 2e+03]
  Bounds range     [1e+00, 6e+00]
  RHS range        [4e-02, 1e+03]
Presolve removed 47 rows and 5 columns
Presolve time: 0.05s
Presolved: 10 rows, 12 columns, 40 nonzeros

Iteration    Objective       Primal Inf.    Dual Inf.      Time
       0    0.0000000e+00   3.297347e-01   0.000000e+00      0s
       9    5.1800000e+03   0.000000e+00   0.000000e+00      0s

Solved in 9 iterations and 0.08 seconds
Optimal objective  5.180000000e+03

Gurobi 8.0.1 (linux64, C++) logging started Tue Oct  6 13:53:22 2020

Academic license - for non-commercial use only
Optimize a model with 57 rows, 17 columns and 134 nonzeros
Coefficient statistics:
  Matrix range     [5e-02, 1e+00]
  Objective range  [2e+03, 2e+03]
  Bounds range     [1e+00, 6e+00]
  RHS range        [4e-02, 1e+04]
Presolve removed 47 rows and 5 columns
Presolve time: 0.04s
Presolved: 10 rows, 12 columns, 43 nonzeros

Iteration    Objective       Primal Inf.    Dual Inf.      Time
       0    0.0000000e+00   3.710233e+00   0.000000e+00      0s

Solved in 8 iterations and 0.05 seconds
Infeasible model

Gurobi 8.0.1 (linux64, C++) logging started Tue Oct  6 13:57:23 2020

Academic license - for non-commercial use only
Optimize a model with 57 rows, 17 columns and 134 nonzeros
Coefficient statistics:
  Matrix range     [5e-02, 1e+00]
  Objective range  [2e+03, 2e+03]
  Bounds range     [1e+00, 6e+00]
  RHS range        [4e-02, 1e+04]
Presolve removed 47 rows and 5 columns
Presolve time: 0.00s
Presolved: 10 rows, 12 columns, 43 nonzeros

Iteration    Objective       Primal Inf.    Dual Inf.      Time
       0    0.0000000e+00   3.710233e+00   0.000000e+00      0s

Solved in 8 iterations and 0.00 seconds
Infeasible model

Gurobi 8.0.1 (linux64, C++) logging started Tue Oct  6 13:59:19 2020

Academic license - for non-commercial use only
Optimize a model with 57 rows, 17 columns and 134 nonzeros
Coefficient statistics:
  Matrix range     [1e+00, 4e+01]
  Objective range  [2e+03, 2e+03]
  Bounds range     [1e+00, 6e+00]
  RHS range        [4e-02, 1e+04]
Presolve removed 47 rows and 5 columns
Presolve time: 0.00s
Presolved: 10 rows, 12 columns, 40 nonzeros

Iteration    Objective       Primal Inf.    Dual Inf.      Time
       0    0.0000000e+00   3.297347e-01   0.000000e+00      0s
       9    5.1800000e+03   0.000000e+00   0.000000e+00      0s

Solved in 9 iterations and 0.02 seconds
Optimal objective  5.180000000e+03

Gurobi 8.0.1 (linux64, C++) logging started Tue Oct  6 14:03:02 2020

Academic license - for non-commercial use only
Optimize a model with 57 rows, 17 columns and 134 nonzeros
Coefficient statistics:
  Matrix range     [5e-02, 1e+00]
  Objective range  [2e+01, 2e+01]
  Bounds range     [1e+00, 6e+00]
  RHS range        [4e+00, 1e+04]
Presolve removed 44 rows and 2 columns
Presolve time: 0.00s

Solved in 0 iterations and 0.00 seconds
Infeasible model

Gurobi 8.0.1 (linux64, C++) logging started Tue Oct  6 14:03:49 2020

Academic license - for non-commercial use only
Optimize a model with 57 rows, 17 columns and 134 nonzeros
Coefficient statistics:
  Matrix range     [1e+00, 4e+01]
  Objective range  [2e+01, 2e+01]
  Bounds range     [1e+00, 6e+00]
  RHS range        [4e+00, 1e+04]
Presolve removed 43 rows and 1 columns
Presolve time: 0.00s

Solved in 0 iterations and 0.00 seconds
Infeasible model

Gurobi 8.0.1 (linux64, C++) logging started Tue Oct  6 14:04:50 2020

Academic license - for non-commercial use only
Optimize a model with 57 rows, 17 columns and 134 nonzeros
Coefficient statistics:
  Matrix range     [1e+00, 4e+01]
  Objective range  [2e+03, 2e+03]
  Bounds range     [1e+00, 6e+00]
  RHS range        [4e-02, 1e+04]
Presolve removed 47 rows and 5 columns
Presolve time: 0.00s
Presolved: 10 rows, 12 columns, 40 nonzeros

Iteration    Objective       Primal Inf.    Dual Inf.      Time
       0    0.0000000e+00   3.297347e-01   0.000000e+00      0s
       9    5.1800000e+03   0.000000e+00   0.000000e+00      0s

Solved in 9 iterations and 0.00 seconds
Optimal objective  5.180000000e+03

Gurobi 8.0.1 (linux64, C++) logging started Tue Oct  6 14:12:22 2020

Academic license - for non-commercial use only
Optimize a model with 57 rows, 17 columns and 134 nonzeros
Coefficient statistics:
  Matrix range     [1e+00, 4e+01]
  Objective range  [2e+03, 2e+03]
  Bounds range     [1e+00, 6e+00]
  RHS range        [4e-02, 1e+04]
Presolve removed 48 rows and 6 columns
Presolve time: 0.00s
Presolved: 9 rows, 11 columns, 37 nonzeros

Iteration    Objective       Primal Inf.    Dual Inf.      Time
       0    0.0000000e+00   3.876226e-01   0.000000e+00      0s
       7    5.1800000e+03   0.000000e+00   0.000000e+00      0s

Solved in 7 iterations and 0.00 seconds
Optimal objective  5.180000000e+03

Gurobi 8.0.1 (linux64, C++) logging started Tue Oct  6 14:14:11 2020

Academic license - for non-commercial use only
Optimize a model with 57 rows, 17 columns and 134 nonzeros
Coefficient statistics:
  Matrix range     [1e+00, 4e+01]
  Objective range  [2e+01, 2e+01]
  Bounds range     [1e+00, 6e+00]
  RHS range        [4e+00, 1e+04]
Presolve removed 43 rows and 1 columns
Presolve time: 0.00s

Solved in 0 iterations and 0.00 seconds
Infeasible model

Gurobi 8.0.1 (linux64, C++) logging started Tue Oct  6 14:26:12 2020

Academic license - for non-commercial use only
Optimize a model with 57 rows, 17 columns and 134 nonzeros
Coefficient statistics:
  Matrix range     [1e+00, 4e+01]
  Objective range  [2e+01, 2e+01]
  Bounds range     [1e+00, 6e+00]
  RHS range        [4e+00, 1e+04]
Presolve removed 43 rows and 1 columns
Presolve time: 0.00s

Solved in 0 iterations and 0.00 seconds
Infeasible model

Gurobi 8.0.1 (linux64, C++) logging started Tue Oct  6 14:27:09 2020

Academic license - for non-commercial use only
Optimize a model with 57 rows, 17 columns and 134 nonzeros
Coefficient statistics:
  Matrix range     [1e+00, 4e+01]
  Objective range  [2e+01, 2e+01]
  Bounds range     [1e+00, 6e+00]
  RHS range        [4e+00, 1e+06]
Presolve removed 43 rows and 1 columns
Presolve time: 0.00s

Solved in 0 iterations and 0.00 seconds
Infeasible model

Gurobi 8.0.1 (linux64, C++) logging started Tue Oct  6 14:29:53 2020

Academic license - for non-commercial use only
Optimize a model with 57 rows, 17 columns and 134 nonzeros
Coefficient statistics:
  Matrix range     [1e+00, 4e+01]
  Objective range  [2e+03, 2e+03]
  Bounds range     [1e+00, 6e+00]
  RHS range        [4e-02, 1e+04]
Presolve removed 48 rows and 6 columns
Presolve time: 0.00s
Presolved: 9 rows, 11 columns, 37 nonzeros

Iteration    Objective       Primal Inf.    Dual Inf.      Time
       0    0.0000000e+00   3.876226e-01   0.000000e+00      0s
       7    5.1800000e+03   0.000000e+00   0.000000e+00      0s

Solved in 7 iterations and 0.00 seconds
Optimal objective  5.180000000e+03

Gurobi 8.0.1 (linux64, C++) logging started Tue Oct  6 14:31:25 2020

Academic license - for non-commercial use only
Optimize a model with 57 rows, 17 columns and 134 nonzeros
Coefficient statistics:
  Matrix range     [1e+00, 4e+01]
  Objective range  [2e+03, 2e+03]
  Bounds range     [1e+00, 6e+00]
  RHS range        [4e-02, 1e+02]
Presolve removed 47 rows and 6 columns
Presolve time: 0.00s
Presolved: 10 rows, 12 columns, 40 nonzeros

Iteration    Objective       Primal Inf.    Dual Inf.      Time
       0    0.0000000e+00   3.876226e-01   0.000000e+00      0s
       7    5.1800000e+03   0.000000e+00   0.000000e+00      0s

Solved in 7 iterations and 0.00 seconds
Optimal objective  5.180000000e+03

Gurobi 8.0.1 (linux64, C++) logging started Tue Oct  6 14:34:12 2020

Academic license - for non-commercial use only
Optimize a model with 59 rows, 17 columns and 140 nonzeros
Coefficient statistics:
  Matrix range     [1e+00, 4e+01]
  Objective range  [2e+03, 2e+03]
  Bounds range     [1e+00, 6e+00]
  RHS range        [4e-02, 1e+02]
Presolve removed 46 rows and 3 columns
Presolve time: 0.00s
Presolved: 13 rows, 15 columns, 51 nonzeros

Iteration    Objective       Primal Inf.    Dual Inf.      Time
       0    0.0000000e+00   2.631983e-01   0.000000e+00      0s
      11    5.1800000e+03   0.000000e+00   0.000000e+00      0s

Solved in 11 iterations and 0.00 seconds
Optimal objective  5.180000000e+03

Gurobi 8.0.1 (linux64, C++) logging started Tue Oct  6 14:45:08 2020

Academic license - for non-commercial use only
Optimize a model with 57 rows, 17 columns and 134 nonzeros
Coefficient statistics:
  Matrix range     [1e+00, 4e+01]
  Objective range  [2e+03, 2e+03]
  Bounds range     [1e+00, 6e+00]
  RHS range        [4e-02, 1e+02]
Presolve removed 47 rows and 6 columns
Presolve time: 0.05s
Presolved: 10 rows, 12 columns, 40 nonzeros

Iteration    Objective       Primal Inf.    Dual Inf.      Time
       0    0.0000000e+00   3.876226e-01   0.000000e+00      0s
       7    5.1800000e+03   0.000000e+00   0.000000e+00      0s

Solved in 7 iterations and 0.09 seconds
Optimal objective  5.180000000e+03

Gurobi 8.0.1 (linux64, C++) logging started Tue Oct  6 14:50:25 2020

Academic license - for non-commercial use only
Optimize a model with 59 rows, 17 columns and 140 nonzeros
Coefficient statistics:
  Matrix range     [1e+00, 4e+01]
  Objective range  [2e+03, 2e+03]
  Bounds range     [1e+00, 6e+00]
  RHS range        [4e-02, 1e+02]
Presolve removed 46 rows and 3 columns
Presolve time: 0.03s
Presolved: 13 rows, 15 columns, 51 nonzeros

Iteration    Objective       Primal Inf.    Dual Inf.      Time
       0    0.0000000e+00   2.631983e-01   0.000000e+00      0s
      11    5.1800000e+03   0.000000e+00   0.000000e+00      0s

Solved in 11 iterations and 0.09 seconds
Optimal objective  5.180000000e+03

Gurobi 8.0.1 (linux64, C++) logging started Wed Oct  7 02:26:08 2020

Academic license - for non-commercial use only
Optimize a model with 59 rows, 17 columns and 140 nonzeros
Coefficient statistics:
  Matrix range     [1e+00, 4e+01]
  Objective range  [2e+03, 2e+03]
  Bounds range     [1e+00, 6e+00]
  RHS range        [4e-02, 1e+02]
Presolve removed 46 rows and 3 columns
Presolve time: 0.05s
Presolved: 13 rows, 15 columns, 51 nonzeros

Iteration    Objective       Primal Inf.    Dual Inf.      Time
       0    0.0000000e+00   2.631983e-01   0.000000e+00      0s
      11    5.1800000e+03   0.000000e+00   0.000000e+00      0s

Solved in 11 iterations and 0.09 seconds
Optimal objective  5.180000000e+03

Gurobi 8.0.1 (linux64, C++) logging started Wed Oct  7 02:27:11 2020

Academic license - for non-commercial use only
